solution status: optimal solution found
objective value:                     180148.828121773
d11(0,0)                                            1 	(obj:0)
d11(1,1)                                            1 	(obj:0)
d11(1,2)                                            1 	(obj:0)
d11(1,3)                                            1 	(obj:0)
d11(2,4)                                            1 	(obj:0)
d11(3,13)                                           1 	(obj:0)
d11(3,14)                                           1 	(obj:0)
d11(3,15)                                           1 	(obj:0)
d11(3,16)                                           1 	(obj:0)
d11(3,17)                                           1 	(obj:0)
d11(3,18)                                           1 	(obj:0)
d11(3,19)                                           1 	(obj:0)
d11(3,20)                                           1 	(obj:0)
d11(3,21)                                           1 	(obj:0)
d11(3,22)                                           1 	(obj:0)
d11(3,23)                                           1 	(obj:0)
d11(3,24)                                           1 	(obj:0)
d11(3,25)                                           1 	(obj:0)
d11(3,26)                                           1 	(obj:0)
d11(3,28)                                           1 	(obj:0)
d11(3,29)                                           1 	(obj:0)
d11(3,30)                                           1 	(obj:0)
d11(3,31)                                           1 	(obj:0)
d11(3,32)                                           1 	(obj:0)
d11(3,33)                                           1 	(obj:0)
d11(3,34)                                           1 	(obj:0)
d11(3,35)                                           1 	(obj:0)
d11(3,36)                                           1 	(obj:0)
d11(3,37)                                           1 	(obj:0)
d11(3,38)                                           1 	(obj:0)
d11(3,39)                                           1 	(obj:0)
d12(2,5)                                            1 	(obj:0)
d12(2,6)                                            1 	(obj:0)
d12(2,8)                                            1 	(obj:0)
d12(2,9)                                            1 	(obj:0)
d12(2,11)                                           1 	(obj:0)
d12(2,12)                                           1 	(obj:0)
d21(3,13)                                           1 	(obj:0)
d21(3,14)                                           1 	(obj:0)
d21(3,15)                                           1 	(obj:0)
d21(3,16)                                           1 	(obj:0)
d21(3,17)                                           1 	(obj:0)
d21(3,19)                                           1 	(obj:0)
d21(3,22)                                           1 	(obj:0)
d21(3,23)                                           1 	(obj:0)
d21(3,25)                                           1 	(obj:0)
d21(3,31)                                           1 	(obj:0)
STE(1,1)                             5132.02446785019 	(obj:0)
STE(0,0)                                        15750 	(obj:0)
STE(1,2)                             6128.79047118348 	(obj:0)
STE(1,3)                             7346.24267451686 	(obj:0)
STE(2,4)                             3872.02446785019 	(obj:0)
STE(2,5)                             4630.68620000014 	(obj:0)
STE(2,6)                             5671.60783385018 	(obj:0)
STE(2,7)                             4868.79047118348 	(obj:0)
STE(2,8)                             5627.45220333343 	(obj:0)
STE(2,9)                             6668.37383718347 	(obj:0)
STE(2,10)                            6086.24267451686 	(obj:0)
STE(2,11)                            6844.90440666681 	(obj:0)
STE(2,12)                            7885.82604051685 	(obj:0)
STE(3,13)                             397.80626118347 	(obj:0)
STE(3,14)                            1394.57226451676 	(obj:0)
STE(3,15)                            2612.02446785022 	(obj:0)
STE(3,16)                            1156.46799333342 	(obj:0)
STE(3,17)                            2153.23399666671 	(obj:0)
STE(3,18)                            3370.68620000009 	(obj:0)
STE(3,19)                            2197.38962718346 	(obj:0)
STE(3,20)                            3194.15563051675 	(obj:0)
STE(3,21)                            4411.60783385018 	(obj:0)
STE(3,22)                            1394.57226451676 	(obj:0)
STE(3,23)                            2391.33826785005 	(obj:0)
STE(3,24)                            3608.79047118343 	(obj:0)
STE(3,25)                            2153.23399666671 	(obj:0)
STE(3,26)                                        3150 	(obj:0)
STE(3,27)                            4367.45220333343 	(obj:0)
STE(3,28)                            3194.15563051675 	(obj:0)
STE(3,29)                            4190.92163385004 	(obj:0)
STE(3,30)                            5408.37383718347 	(obj:0)
STE(3,31)                            2612.02446785014 	(obj:0)
STE(3,32)                            3608.79047118343 	(obj:0)
STE(3,33)                            4826.24267451681 	(obj:0)
STE(3,34)                            3370.68620000009 	(obj:0)
STE(3,35)                            4367.45220333338 	(obj:0)
STE(3,36)                            5584.90440666681 	(obj:0)
STE(3,37)                            4411.60783385013 	(obj:0)
STE(3,38)                            5408.37383718342 	(obj:0)
STE(3,39)                            6625.82604051685 	(obj:0)
y1(3,23)                             1095.70698300009 	(obj:0)
y1(3,25)                             1992.79638600005 	(obj:0)
y1(3,26)                             1095.70698300009 	(obj:0)
y1(3,28)                             1992.79638600005 	(obj:0)
y1(3,29)                             1095.70698300009 	(obj:0)
y1(3,31)                             1992.79638600005 	(obj:0)
y1(3,32)                             1095.70698300009 	(obj:0)
y1(3,34)                             1992.79638600005 	(obj:0)
y1(3,35)                             1095.70698300009 	(obj:0)
y1(3,37)                             1992.79638600005 	(obj:0)
y1(3,38)                             1095.70698300009 	(obj:0)
BG(3)                                1204.56299667527 	(obj:10)
WB(1)                                3199.95851117552 	(obj:0)
AVE(1)                               3199.95851117552 	(obj:0)
WB(2)                                3265.15049132519 	(obj:0)
AVE(2)                               3265.15049132519 	(obj:0)
AVE(3)                               3291.35535332476 	(obj:0)
WG(3)                                3291.35535332476 	(obj:10)
BG(1)                                11056.5118121784 	(obj:10)
BG(2)                                      2462.45265 	(obj:10)
y1(1,1)                              8422.17797893483 	(obj:0)
y1(1,2)                              7525.08857593487 	(obj:0)
y1(1,3)                              6429.38159293483 	(obj:0)
y1(3,13)                             1992.79638600005 	(obj:0)
y1(3,14)                             1095.70698300009 	(obj:0)
y1(3,16)                             1992.79638600005 	(obj:0)
y1(3,17)                             1095.70698300009 	(obj:0)
y1(3,19)                             1992.79638600005 	(obj:0)
y1(3,20)                             1095.70698300009 	(obj:0)
y1(3,22)                             1992.79638600005 	(obj:0)
y2(2,5)                              798.591296999947 	(obj:0)
y2(2,6)                              1894.29827999999 	(obj:0)
y2(2,8)                              798.591296999947 	(obj:0)
y2(2,9)                              1894.29827999999 	(obj:0)
y2(2,11)                             798.591296999947 	(obj:0)
y2(2,12)                             1894.29827999999 	(obj:0)
